TCS_Benchmarks/redos_fix/snort1_output_distinct_91_90_1_0.txt
([^>]*)(\s*)
([^>]*)([jJ][aA][vV][aA]\-[vV][mM]\-[aA][rR][gG][sS])(\s*)